; Copyright (c) 2026 The RIINA Authors. All rights reserved.
; Auto-generated from 02_FORMAL/coq/domains/SIGMA001_VerifiedStorage.v (38 validations)
; Generated by scripts/generate-full-stack.py
;
; Translation Validation for SIGMA001_VerifiedStorage
; Layer 9: Verifies compiler backend preserves formal semantics.
; Each assertion checks source IR ≡ target code for a proven property.

(set-logic QF_LIA)
(set-option :produce-models true)

; IR node representation
(declare-sort IRNode 0)
(declare-sort TargetNode 0)

; value_type: source semantics (matches Coq)
(declare-fun source_value_type () Bool)
(declare-fun target_value_type () Bool)
(assert (= source_value_type target_value_type))

; query_contains_raw_string: source semantics (matches Coq)
(declare-fun source_query_contains_raw_string () Bool)
(declare-fun target_query_contains_raw_string () Bool)
(assert (= source_query_contains_raw_string target_query_contains_raw_string))

; apply_op: source semantics (matches Coq)
(declare-fun source_apply_op () Bool)
(declare-fun target_apply_op () Bool)
(assert (= source_apply_op target_apply_op))

; all_ops_applied: source semantics (matches Coq)
(declare-fun source_all_ops_applied () Bool)
(declare-fun target_all_ops_applied () Bool)
(assert (= source_all_ops_applied target_all_ops_applied))

; wal_contains: source semantics (matches Coq)
(declare-fun source_wal_contains () Bool)
(declare-fun target_wal_contains () Bool)
(assert (= source_wal_contains target_wal_contains))

; wal_upto: source semantics (matches Coq)
(declare-fun source_wal_upto () Bool)
(declare-fun target_wal_upto () Bool)
(assert (= source_wal_upto target_wal_upto))

; wal_recover: source semantics (matches Coq)
(declare-fun source_wal_recover () Bool)
(declare-fun target_wal_recover () Bool)
(assert (= source_wal_recover target_wal_recover))

; checksum: source semantics (matches Coq)
(declare-fun source_checksum () Bool)
(declare-fun target_checksum () Bool)
(assert (= source_checksum target_checksum))

; verify_checksum: source semantics (matches Coq)
(declare-fun source_verify_checksum () Bool)
(declare-fun target_verify_checksum () Bool)
(assert (= source_verify_checksum target_verify_checksum))

; is_encrypted: source semantics (matches Coq)
(declare-fun source_is_encrypted () Bool)
(declare-fun target_is_encrypted () Bool)
(assert (= source_is_encrypted target_is_encrypted))

; compute_merkle_root: source semantics (matches Coq)
(declare-fun source_compute_merkle_root () Bool)
(declare-fun target_compute_merkle_root () Bool)
(assert (= source_compute_merkle_root target_compute_merkle_root))

; verify_merkle: source semantics (matches Coq)
(declare-fun source_verify_merkle () Bool)
(declare-fun target_verify_merkle () Bool)
(assert (= source_verify_merkle target_verify_merkle))

; audit_chain_valid: source semantics (matches Coq)
(declare-fun source_audit_chain_valid () Bool)
(declare-fun target_audit_chain_valid () Bool)
(assert (= source_audit_chain_valid target_audit_chain_valid))

; type_matches: source semantics (matches Coq)
(declare-fun source_type_matches () Bool)
(declare-fun target_type_matches () Bool)
(assert (= source_type_matches target_type_matches))

; row_matches_schema: source semantics (matches Coq)
(declare-fun source_row_matches_schema () Bool)
(declare-fun target_row_matches_schema () Bool)
(assert (= source_row_matches_schema target_row_matches_schema))

; query_well_typed: source semantics (matches Coq)
(declare-fun source_query_well_typed () Bool)
(declare-fun target_query_well_typed () Bool)
(assert (= source_query_well_typed target_query_well_typed))

; pred_well_typed: source semantics (matches Coq)
(declare-fun source_pred_well_typed () Bool)
(declare-fun target_pred_well_typed () Bool)
(assert (= source_pred_well_typed target_pred_well_typed))

; is_serializable: source semantics (matches Coq)
(declare-fun source_is_serializable () Bool)
(declare-fun target_is_serializable () Bool)
(assert (= source_is_serializable target_is_serializable))

; has_dirty_read: source semantics (matches Coq)
(declare-fun source_has_dirty_read () Bool)
(declare-fun target_has_dirty_read () Bool)
(assert (= source_has_dirty_read target_has_dirty_read))

; has_phantom_read: source semantics (matches Coq)
(declare-fun source_has_phantom_read () Bool)
(declare-fun target_has_phantom_read () Bool)
(assert (= source_has_phantom_read target_has_phantom_read))

; SIGMA_001_01_query_ast_typed: translation preserves property (matches Coq: Theorem)
(declare-fun source_SIGMA_001_01_query_ast_typed () Bool)
(declare-fun target_SIGMA_001_01_query_ast_typed () Bool)
(assert (= source_SIGMA_001_01_query_ast_typed target_SIGMA_001_01_query_ast_typed))

; SIGMA_001_02_no_sql_injection: translation preserves property (matches Coq: Theorem)
(declare-fun source_SIGMA_001_02_no_sql_injection () Bool)
(declare-fun target_SIGMA_001_02_no_sql_injection () Bool)
(assert (= source_SIGMA_001_02_no_sql_injection target_SIGMA_001_02_no_sql_injection))

; SIGMA_001_03_query_preserves_schema: translation preserves property (matches Coq: Theorem)
(declare-fun source_SIGMA_001_03_query_preserves_schema () Bool)
(declare-fun target_SIGMA_001_03_query_preserves_schema () Bool)
(assert (= source_SIGMA_001_03_query_preserves_schema target_SIGMA_001_03_query_preserves_schema))

; SIGMA_001_04_predicate_typed: translation preserves property (matches Coq: Theorem)
(declare-fun source_SIGMA_001_04_predicate_typed () Bool)
(declare-fun target_SIGMA_001_04_predicate_typed () Bool)
(assert (= source_SIGMA_001_04_predicate_typed target_SIGMA_001_04_predicate_typed))

; SIGMA_001_05_projection_typed: translation preserves property (matches Coq: Theorem)
(declare-fun source_SIGMA_001_05_projection_typed () Bool)
(declare-fun target_SIGMA_001_05_projection_typed () Bool)
(assert (= source_SIGMA_001_05_projection_typed target_SIGMA_001_05_projection_typed))

; SIGMA_001_06_join_typed: translation preserves property (matches Coq: Theorem)
(declare-fun source_SIGMA_001_06_join_typed () Bool)
(declare-fun target_SIGMA_001_06_join_typed () Bool)
(assert (= source_SIGMA_001_06_join_typed target_SIGMA_001_06_join_typed))

; SIGMA_001_07_query_result_typed: translation preserves property (matches Coq: Theorem)
(declare-fun source_SIGMA_001_07_query_result_typed () Bool)
(declare-fun target_SIGMA_001_07_query_result_typed () Bool)
(assert (= source_SIGMA_001_07_query_result_typed target_SIGMA_001_07_query_result_typed))

; SIGMA_001_08_parameterized_safe: translation preserves property (matches Coq: Theorem)
(declare-fun source_SIGMA_001_08_parameterized_safe () Bool)
(declare-fun target_SIGMA_001_08_parameterized_safe () Bool)
(assert (= source_SIGMA_001_08_parameterized_safe target_SIGMA_001_08_parameterized_safe))

; SIGMA_001_09_atomicity: translation preserves property (matches Coq: Theorem)
(declare-fun source_SIGMA_001_09_atomicity () Bool)
(declare-fun target_SIGMA_001_09_atomicity () Bool)
(assert (= source_SIGMA_001_09_atomicity target_SIGMA_001_09_atomicity))

; SIGMA_001_10_atomicity_commit: translation preserves property (matches Coq: Theorem)
(declare-fun source_SIGMA_001_10_atomicity_commit () Bool)
(declare-fun target_SIGMA_001_10_atomicity_commit () Bool)
(assert (= source_SIGMA_001_10_atomicity_commit target_SIGMA_001_10_atomicity_commit))

; SIGMA_001_11_atomicity_abort: translation preserves property (matches Coq: Theorem)
(declare-fun source_SIGMA_001_11_atomicity_abort () Bool)
(declare-fun target_SIGMA_001_11_atomicity_abort () Bool)
(assert (= source_SIGMA_001_11_atomicity_abort target_SIGMA_001_11_atomicity_abort))

; SIGMA_001_12_consistency: translation preserves property (matches Coq: Theorem)
(declare-fun source_SIGMA_001_12_consistency () Bool)
(declare-fun target_SIGMA_001_12_consistency () Bool)
(assert (= source_SIGMA_001_12_consistency target_SIGMA_001_12_consistency))

; SIGMA_001_13_consistency_fk: translation preserves property (matches Coq: Theorem)
(declare-fun source_SIGMA_001_13_consistency_fk () Bool)
(declare-fun target_SIGMA_001_13_consistency_fk () Bool)
(assert (= source_SIGMA_001_13_consistency_fk target_SIGMA_001_13_consistency_fk))

; SIGMA_001_14_consistency_unique: translation preserves property (matches Coq: Theorem)
(declare-fun source_SIGMA_001_14_consistency_unique () Bool)
(declare-fun target_SIGMA_001_14_consistency_unique () Bool)
(assert (= source_SIGMA_001_14_consistency_unique target_SIGMA_001_14_consistency_unique))

; SIGMA_001_15_isolation_serializable: translation preserves property (matches Coq: Theorem)
(declare-fun source_SIGMA_001_15_isolation_serializable () Bool)
(declare-fun target_SIGMA_001_15_isolation_serializable () Bool)
(assert (= source_SIGMA_001_15_isolation_serializable target_SIGMA_001_15_isolation_serializable))

; SIGMA_001_16_isolation_no_dirty_read: translation preserves property (matches Coq: Theorem)
(declare-fun source_SIGMA_001_16_isolation_no_dirty_read () Bool)
(declare-fun target_SIGMA_001_16_isolation_no_dirty_read () Bool)
(assert (= source_SIGMA_001_16_isolation_no_dirty_read target_SIGMA_001_16_isolation_no_dirty_read))

; SIGMA_001_17_isolation_no_phantom: translation preserves property (matches Coq: Theorem)
(declare-fun source_SIGMA_001_17_isolation_no_phantom () Bool)
(declare-fun target_SIGMA_001_17_isolation_no_phantom () Bool)
(assert (= source_SIGMA_001_17_isolation_no_phantom target_SIGMA_001_17_isolation_no_phantom))

; SIGMA_001_18_durability: translation preserves property (matches Coq: Theorem)
(declare-fun source_SIGMA_001_18_durability () Bool)
(declare-fun target_SIGMA_001_18_durability () Bool)
(assert (= source_SIGMA_001_18_durability target_SIGMA_001_18_durability))

; SIGMA_001_19_wal_correct: translation preserves property (matches Coq: Theorem)
(declare-fun source_SIGMA_001_19_wal_correct () Bool)
(declare-fun target_SIGMA_001_19_wal_correct () Bool)
(assert (= source_SIGMA_001_19_wal_correct target_SIGMA_001_19_wal_correct))

; SIGMA_001_20_wal_recovery: translation preserves property (matches Coq: Theorem)
(declare-fun source_SIGMA_001_20_wal_recovery () Bool)
(declare-fun target_SIGMA_001_20_wal_recovery () Bool)
(assert (= source_SIGMA_001_20_wal_recovery target_SIGMA_001_20_wal_recovery))

; SIGMA_001_21_wal_idempotent: translation preserves property (matches Coq: Theorem)
(declare-fun source_SIGMA_001_21_wal_idempotent () Bool)
(declare-fun target_SIGMA_001_21_wal_idempotent () Bool)
(assert (= source_SIGMA_001_21_wal_idempotent target_SIGMA_001_21_wal_idempotent))

; SIGMA_001_22_checkpoint_correct: translation preserves property (matches Coq: Theorem)
(declare-fun source_SIGMA_001_22_checkpoint_correct () Bool)
(declare-fun target_SIGMA_001_22_checkpoint_correct () Bool)
(assert (= source_SIGMA_001_22_checkpoint_correct target_SIGMA_001_22_checkpoint_correct))

; SIGMA_001_23_no_partial_write: translation preserves property (matches Coq: Theorem)
(declare-fun source_SIGMA_001_23_no_partial_write () Bool)
(declare-fun target_SIGMA_001_23_no_partial_write () Bool)
(assert (= source_SIGMA_001_23_no_partial_write target_SIGMA_001_23_no_partial_write))

; SIGMA_001_24_crash_atomic: translation preserves property (matches Coq: Theorem)
(declare-fun source_SIGMA_001_24_crash_atomic () Bool)
(declare-fun target_SIGMA_001_24_crash_atomic () Bool)
(assert (= source_SIGMA_001_24_crash_atomic target_SIGMA_001_24_crash_atomic))

; SIGMA_001_25_recovery_complete: translation preserves property (matches Coq: Theorem)
(declare-fun source_SIGMA_001_25_recovery_complete () Bool)
(declare-fun target_SIGMA_001_25_recovery_complete () Bool)
(assert (= source_SIGMA_001_25_recovery_complete target_SIGMA_001_25_recovery_complete))

; SIGMA_001_26_recovery_abort: translation preserves property (matches Coq: Theorem)
(declare-fun source_SIGMA_001_26_recovery_abort () Bool)
(declare-fun target_SIGMA_001_26_recovery_abort () Bool)
(assert (= source_SIGMA_001_26_recovery_abort target_SIGMA_001_26_recovery_abort))

; SIGMA_001_27_btree_ordered: translation preserves property (matches Coq: Theorem)
(declare-fun source_SIGMA_001_27_btree_ordered () Bool)
(declare-fun target_SIGMA_001_27_btree_ordered () Bool)
(assert (= source_SIGMA_001_27_btree_ordered target_SIGMA_001_27_btree_ordered))

; SIGMA_001_28_btree_balanced: translation preserves property (matches Coq: Theorem)
(declare-fun source_SIGMA_001_28_btree_balanced () Bool)
(declare-fun target_SIGMA_001_28_btree_balanced () Bool)
(assert (= source_SIGMA_001_28_btree_balanced target_SIGMA_001_28_btree_balanced))

; SIGMA_001_29_btree_lookup_correct: translation preserves property (matches Coq: Theorem)
(declare-fun source_SIGMA_001_29_btree_lookup_correct () Bool)
(declare-fun target_SIGMA_001_29_btree_lookup_correct () Bool)
(assert (= source_SIGMA_001_29_btree_lookup_correct target_SIGMA_001_29_btree_lookup_correct))

; SIGMA_001_30_btree_insert_preserves: translation preserves property (matches Coq: Theorem)
(declare-fun source_SIGMA_001_30_btree_insert_preserves () Bool)
(declare-fun target_SIGMA_001_30_btree_insert_preserves () Bool)
(assert (= source_SIGMA_001_30_btree_insert_preserves target_SIGMA_001_30_btree_insert_preserves))

; SIGMA_001_31_btree_delete_preserves: translation preserves property (matches Coq: Theorem)
(declare-fun source_SIGMA_001_31_btree_delete_preserves () Bool)
(declare-fun target_SIGMA_001_31_btree_delete_preserves () Bool)
(assert (= source_SIGMA_001_31_btree_delete_preserves target_SIGMA_001_31_btree_delete_preserves))

; SIGMA_001_32_btree_complexity: translation preserves property (matches Coq: Theorem)
(declare-fun source_SIGMA_001_32_btree_complexity () Bool)
(declare-fun target_SIGMA_001_32_btree_complexity () Bool)
(assert (= source_SIGMA_001_32_btree_complexity target_SIGMA_001_32_btree_complexity))

; SIGMA_001_33_page_integrity: translation preserves property (matches Coq: Theorem)
(declare-fun source_SIGMA_001_33_page_integrity () Bool)
(declare-fun target_SIGMA_001_33_page_integrity () Bool)
(assert (= source_SIGMA_001_33_page_integrity target_SIGMA_001_33_page_integrity))

; SIGMA_001_34_encryption_at_rest: translation preserves property (matches Coq: Theorem)
(declare-fun source_SIGMA_001_34_encryption_at_rest () Bool)
(declare-fun target_SIGMA_001_34_encryption_at_rest () Bool)
(assert (= source_SIGMA_001_34_encryption_at_rest target_SIGMA_001_34_encryption_at_rest))

; SIGMA_001_35_merkle_tamper_detect: translation preserves property (matches Coq: Theorem)
(declare-fun source_SIGMA_001_35_merkle_tamper_detect () Bool)
(declare-fun target_SIGMA_001_35_merkle_tamper_detect () Bool)
(assert (= source_SIGMA_001_35_merkle_tamper_detect target_SIGMA_001_35_merkle_tamper_detect))

; SIGMA_001_36_checksum_correct: translation preserves property (matches Coq: Theorem)
(declare-fun source_SIGMA_001_36_checksum_correct () Bool)
(declare-fun target_SIGMA_001_36_checksum_correct () Bool)
(assert (= source_SIGMA_001_36_checksum_correct target_SIGMA_001_36_checksum_correct))

; SIGMA_001_37_audit_immutable: translation preserves property (matches Coq: Theorem)
(declare-fun source_SIGMA_001_37_audit_immutable () Bool)
(declare-fun target_SIGMA_001_37_audit_immutable () Bool)
(assert (= source_SIGMA_001_37_audit_immutable target_SIGMA_001_37_audit_immutable))

; SIGMA_001_38_backup_consistent: translation preserves property (matches Coq: Theorem)
(declare-fun source_SIGMA_001_38_backup_consistent () Bool)
(declare-fun target_SIGMA_001_38_backup_consistent () Bool)
(assert (= source_SIGMA_001_38_backup_consistent target_SIGMA_001_38_backup_consistent))

; Verify all translation validations are satisfiable
(check-sat)
(exit)
